/* Función objetivo: minimizar costos */
min: 999999 x11 + 999999 x22 + 999999 x33 + 999999 x44 + 999999 x55 + 999999 x66 + 999999 x14 + 999999 x41 + 999999 x25 + 999999 x52 + 999999 x26 + 999999 x62 + 999999 x36 + 999999 x63 + 999999 x46 + 999999 x64 + 12 x12 + 12 x21 + 999999 x13 + 16 x31 + 25 x15 + 25 x51 + 10 x16 + 10 x61 +  23 x23 + 23 x32 + 999999 x24 + 19 x42 + 27 x34 + 27 x43 + 22 x35 + 22 x53 + 20 x45 + 20 x54 + 14 x56 + 14 x65;

/* Método hungaro */
/* Máximo una asignación por fila */
x11 + x12 + x13 + x14 + x15 + x16 = 1;
x21 + x22 + x23 + x24 + x25 + x26 = 1;
x31 + x32 + x33 + x34 + x35 + x36 = 1;
x41 + x42 + x43 + x44 + x45 + x46 = 1;
x51 + x52 + x53 + x54 + x55 + x56 = 1;
x61 + x62 + x63 + x64 + x65 + x66 = 1;

/* Máximo una asignación por columna */
x11 + x21 + x31 + x41 + x51 + x61 = 1;
x12 + x22 + x32 + x42 + x52 + x62 = 1;
x13 + x23 + x33 + x43 + x53 + x63 = 1;
x14 + x24 + x34 + x44 + x54 + x64 = 1;
x15 + x25 + x35 + x45 + x55 + x65 = 1;
x16 + x26 + x36 + x46 + x56 + x66 = 1;

/* Condiciones de quiebre */
x13 = 0;
x24 = 0;
